NAME          
ROWS
 N  OBJ
 L  c1
COLUMNS
    MARKER    'MARKER'                 'INTORG'
    x[1]      c1        451
    x[1]      OBJ       -440
    x[2]      c1        965
    x[2]      OBJ       -972
    x[3]      c1        1060
    x[3]      OBJ       -994
    x[4]      c1        32
    x[4]      OBJ       -27
    x[5]      c1        127
    x[5]      OBJ       -139
    x[6]      c1        444
    x[6]      OBJ       -447
    x[7]      c1        497
    x[7]      OBJ       -572
    x[8]      c1        1096
    x[8]      OBJ       -1000
    x[9]      c1        356
    x[9]      OBJ       -325
    x[10]     c1        148
    x[10]     OBJ       -90
    x[11]     c1        632
    x[11]     OBJ       -569
    x[12]     c1        242
    x[12]     OBJ       -274
    x[13]     c1        691
    x[13]     OBJ       -649
    x[14]     c1        931
    x[14]     OBJ       -864
    x[15]     c1        751
    x[15]     OBJ       -721
    x[16]     c1        1005
    x[16]     OBJ       -1000
    x[17]     c1        995
    x[17]     OBJ       -925
    x[18]     c1        496
    x[18]     OBJ       -397
    x[19]     c1        94
    x[19]     OBJ       -180
    x[20]     c1        5
    x[20]     OBJ       -17
    x[21]     c1        696
    x[21]     OBJ       -713
    x[22]     c1        205
    x[22]     OBJ       -293
    x[23]     c1        664
    x[23]     OBJ       -621
    x[24]     c1        937
    x[24]     OBJ       -980
    x[25]     c1        186
    x[25]     OBJ       -147
    x[26]     c1        621
    x[26]     OBJ       -672
    x[27]     c1        655
    x[27]     OBJ       -732
    x[28]     c1        616
    x[28]     OBJ       -579
    x[29]     c1        546
    x[29]     OBJ       -526
    x[30]     c1        212
    x[30]     OBJ       -163
    x[31]     c1        791
    x[31]     OBJ       -825
    x[32]     c1        629
    x[32]     OBJ       -652
    x[33]     c1        903
    x[33]     OBJ       -839
    x[34]     c1        865
    x[34]     OBJ       -901
    x[35]     c1        611
    x[35]     OBJ       -617
    x[36]     c1        669
    x[36]     OBJ       -709
    x[37]     c1        -15
    x[37]     OBJ       -52
    x[38]     c1        559
    x[38]     OBJ       -632
    x[39]     c1        757
    x[39]     OBJ       -765
    x[40]     c1        713
    x[40]     OBJ       -668
    x[41]     c1        397
    x[41]     OBJ       -474
    x[42]     c1        629
    x[42]     OBJ       -641
    x[43]     c1        583
    x[43]     OBJ       -623
    x[44]     c1        189
    x[44]     OBJ       -270
    x[45]     c1        376
    x[45]     OBJ       -318
    x[46]     c1        56
    x[46]     OBJ       -5
    x[47]     c1        953
    x[47]     OBJ       -866
    x[48]     c1        237
    x[48]     OBJ       -218
    x[49]     c1        266
    x[49]     OBJ       -366
    x[50]     c1        357
    x[50]     OBJ       -410
    x[51]     c1        492
    x[51]     OBJ       -546
    x[52]     c1        731
    x[52]     OBJ       -830
    x[53]     c1        183
    x[53]     OBJ       -241
    x[54]     c1        267
    x[54]     OBJ       -175
    x[55]     c1        767
    x[55]     OBJ       -846
    x[56]     c1        147
    x[56]     OBJ       -228
    x[57]     c1        -13
    x[57]     OBJ       -5
    x[58]     c1        228
    x[58]     OBJ       -320
    x[59]     c1        138
    x[59]     OBJ       -105
    x[60]     c1        220
    x[60]     OBJ       -183
    x[61]     c1        482
    x[61]     OBJ       -558
    x[62]     c1        254
    x[62]     OBJ       -353
    x[63]     c1        145
    x[63]     OBJ       -200
    x[64]     c1        346
    x[64]     OBJ       -421
    x[65]     c1        241
    x[65]     OBJ       -281
    x[66]     c1        124
    x[66]     OBJ       -102
    x[67]     c1        296
    x[67]     OBJ       -359
    x[68]     c1        475
    x[68]     OBJ       -448
    x[69]     c1        310
    x[69]     OBJ       -395
    x[70]     c1        429
    x[70]     OBJ       -430
    x[71]     c1        888
    x[71]     OBJ       -847
    x[72]     c1        255
    x[72]     OBJ       -322
    x[73]     c1        120
    x[73]     OBJ       -26
    x[74]     c1        931
    x[74]     OBJ       -927
    x[75]     c1        853
    x[75]     OBJ       -790
RHS
    rhs       c1        18095
RANGES
BOUNDS
 LO bounds    x[1]      0
 PL bounds    x[1]
 LO bounds    x[2]      0
 PL bounds    x[2]
 LO bounds    x[3]      0
 PL bounds    x[3]
 LO bounds    x[4]      0
 PL bounds    x[4]
 LO bounds    x[5]      0
 PL bounds    x[5]
 LO bounds    x[6]      0
 PL bounds    x[6]
 LO bounds    x[7]      0
 PL bounds    x[7]
 LO bounds    x[8]      0
 PL bounds    x[8]
 LO bounds    x[9]      0
 PL bounds    x[9]
 LO bounds    x[10]     0
 PL bounds    x[10]
 LO bounds    x[11]     0
 PL bounds    x[11]
 LO bounds    x[12]     0
 PL bounds    x[12]
 LO bounds    x[13]     0
 PL bounds    x[13]
 LO bounds    x[14]     0
 PL bounds    x[14]
 LO bounds    x[15]     0
 PL bounds    x[15]
 LO bounds    x[16]     0
 PL bounds    x[16]
 LO bounds    x[17]     0
 PL bounds    x[17]
 LO bounds    x[18]     0
 PL bounds    x[18]
 LO bounds    x[19]     0
 PL bounds    x[19]
 LO bounds    x[20]     0
 PL bounds    x[20]
 LO bounds    x[21]     0
 PL bounds    x[21]
 LO bounds    x[22]     0
 PL bounds    x[22]
 LO bounds    x[23]     0
 PL bounds    x[23]
 LO bounds    x[24]     0
 PL bounds    x[24]
 LO bounds    x[25]     0
 PL bounds    x[25]
 LO bounds    x[26]     0
 PL bounds    x[26]
 LO bounds    x[27]     0
 PL bounds    x[27]
 LO bounds    x[28]     0
 PL bounds    x[28]
 LO bounds    x[29]     0
 PL bounds    x[29]
 LO bounds    x[30]     0
 PL bounds    x[30]
 LO bounds    x[31]     0
 PL bounds    x[31]
 LO bounds    x[32]     0
 PL bounds    x[32]
 LO bounds    x[33]     0
 PL bounds    x[33]
 LO bounds    x[34]     0
 PL bounds    x[34]
 LO bounds    x[35]     0
 PL bounds    x[35]
 LO bounds    x[36]     0
 PL bounds    x[36]
 LO bounds    x[37]     0
 PL bounds    x[37]
 LO bounds    x[38]     0
 PL bounds    x[38]
 LO bounds    x[39]     0
 PL bounds    x[39]
 LO bounds    x[40]     0
 PL bounds    x[40]
 LO bounds    x[41]     0
 PL bounds    x[41]
 LO bounds    x[42]     0
 PL bounds    x[42]
 LO bounds    x[43]     0
 PL bounds    x[43]
 LO bounds    x[44]     0
 PL bounds    x[44]
 LO bounds    x[45]     0
 PL bounds    x[45]
 LO bounds    x[46]     0
 PL bounds    x[46]
 LO bounds    x[47]     0
 PL bounds    x[47]
 LO bounds    x[48]     0
 PL bounds    x[48]
 LO bounds    x[49]     0
 PL bounds    x[49]
 LO bounds    x[50]     0
 PL bounds    x[50]
 LO bounds    x[51]     0
 PL bounds    x[51]
 LO bounds    x[52]     0
 PL bounds    x[52]
 LO bounds    x[53]     0
 PL bounds    x[53]
 LO bounds    x[54]     0
 PL bounds    x[54]
 LO bounds    x[55]     0
 PL bounds    x[55]
 LO bounds    x[56]     0
 PL bounds    x[56]
 LO bounds    x[57]     0
 PL bounds    x[57]
 LO bounds    x[58]     0
 PL bounds    x[58]
 LO bounds    x[59]     0
 PL bounds    x[59]
 LO bounds    x[60]     0
 PL bounds    x[60]
 LO bounds    x[61]     0
 PL bounds    x[61]
 LO bounds    x[62]     0
 PL bounds    x[62]
 LO bounds    x[63]     0
 PL bounds    x[63]
 LO bounds    x[64]     0
 PL bounds    x[64]
 LO bounds    x[65]     0
 PL bounds    x[65]
 LO bounds    x[66]     0
 PL bounds    x[66]
 LO bounds    x[67]     0
 PL bounds    x[67]
 LO bounds    x[68]     0
 PL bounds    x[68]
 LO bounds    x[69]     0
 PL bounds    x[69]
 LO bounds    x[70]     0
 PL bounds    x[70]
 LO bounds    x[71]     0
 PL bounds    x[71]
 LO bounds    x[72]     0
 PL bounds    x[72]
 LO bounds    x[73]     0
 PL bounds    x[73]
 LO bounds    x[74]     0
 PL bounds    x[74]
 LO bounds    x[75]     0
 PL bounds    x[75]
ENDATA
